NAME : n150w120.001.734.tour
COMMENT : Length = 734
COMMENT : Found by LKH [Keld Helsgaun] Tue May  2 05:20:05 2017
TYPE : TOUR
DIMENSION : 151
TOUR_SECTION
1
100
133
23
93
96
41
87
47
68
46
34
105
147
44
66
150
135
49
126
83
32
6
26
144
30
148
5
149
42
4
79
125
33
95
60
69
43
72
119
122
65
85
138
63
19
103
12
52
128
109
111
18
7
99
78
97
61
35
15
117
62
118
101
98
113
24
73
107
31
92
129
123
48
54
64
37
2
10
120
91
131
115
106
38
142
124
94
70
112
127
74
143
75
136
57
59
146
13
55
77
27
11
132
8
82
9
16
141
84
130
71
108
137
53
56
89
67
45
80
20
58
3
114
25
21
81
29
134
36
22
39
139
86
88
28
76
40
102
110
104
116
50
140
90
121
14
17
145
151
51
-1
EOF
